gen	cost
1	21121
2	20936
3	20804
4	20713
5	20620
6	20522
7	20445
8	20238
9	20221
10	20170
11	20021
12	19952
13	19852
14	19734
15	19714
16	19710
17	19710
18	19707
19	19669
20	19555
21	19546
22	19463
23	19453
24	19367
25	19310
26	19243
27	19179
28	19126
29	19037
30	19012
31	18946
32	18912
33	18786
34	18732
35	18632
36	18594
37	18512
38	18478
39	18428
40	18425
41	18402
42	18374
43	18343
44	18310
45	18260
46	18228
47	18185
48	18162
49	18139
50	18116

